Speck32/MILP/sol/6Round_41.sol
# Objective value = 15.0
pro0Rd0 -0.0
pro1Rd0 1.0000000000000004
pro2Rd0 -8.881784197001252e-16
pro3Rd0 1.0000000000000004
pro4Rd0 0.0
pro5Rd0 1.0
pro6Rd0 -0.0
pro7Rd0 -2.7755575615628914e-17
pro8Rd0 -8.326672684688674e-17
pro9Rd0 -0.0
pro10Rd0 1.0
pro11Rd0 1.0
pro12Rd0 1.0
pro13Rd0 2.0816681711721685e-17
pro14Rd0 -5.551115123125783e-17
pro0Rd1 -8.326672684688674e-17
pro1Rd1 0.0
pro2Rd1 2.0816681711721685e-17
pro3Rd1 -0.0
pro4Rd1 -0.0
pro5Rd1 0.0
pro6Rd1 0.0
pro7Rd1 -1.5265566588595902e-16
pro8Rd1 1.0
pro9Rd1 -5.551115123125783e-17
pro10Rd1 1.0
pro11Rd1 -1.6653345369377348e-16
pro12Rd1 0.0
pro13Rd1 -1.6653345369377348e-16
pro14Rd1 -0.0
pro0Rd2 -0.0
pro1Rd2 -5.551115123125783e-17
pro2Rd2 0.0
pro3Rd2 -2.220446049250313e-16
pro4Rd2 -1.6653345369377348e-16
pro5Rd2 2.0816681711721685e-17
pro6Rd2 -0.0
pro7Rd2 2.0816681711721685e-17
pro8Rd2 -0.0
pro9Rd2 -0.0
pro10Rd2 -0.0
pro11Rd2 0.0
pro12Rd2 -2.220446049250313e-16
pro13Rd2 0.0
pro14Rd2 -8.881784197001252e-16
pro0Rd3 -4.440892098500626e-16
pro1Rd3 -4.440892098500626e-16
pro2Rd3 -4.440892098500626e-16
pro3Rd3 0.0
pro4Rd3 -0.0
pro5Rd3 -0.0
pro6Rd3 1.0
pro7Rd3 -0.0
pro8Rd3 0.0
pro9Rd3 0.0
pro10Rd3 -0.0
pro11Rd3 0.0
pro12Rd3 8.881784197001252e-16
pro13Rd3 -0.0
pro14Rd3 -0.0
pro0Rd4 0.0
pro1Rd4 -0.0
pro2Rd4 5.551115123125783e-17
pro3Rd4 0.0
pro4Rd4 3.3306690738754696e-16
pro5Rd4 4.440892098500626e-16
pro6Rd4 0.9999999999999996
pro7Rd4 4.440892098500626e-16
pro8Rd4 1.1102230246251565e-16
pro9Rd4 -0.0
pro10Rd4 1.1102230246251565e-16
pro11Rd4 0.0
pro12Rd4 0.0
pro13Rd4 1.0
pro14Rd4 -0.0
pro0Rd5 0.0
pro1Rd5 5.551115123125783e-16
pro2Rd5 -0.0
pro3Rd5 0.0
pro4Rd5 1.0
pro5Rd5 4.440892098500626e-16
pro6Rd5 0.9999999999999982
pro7Rd5 8.881784197001252e-16
pro8Rd5 -0.0
pro9Rd5 0.0
pro10Rd5 1.1102230246251565e-16
pro11Rd5 0.9999999999999996
pro12Rd5 2.220446049250313e-16
pro13Rd5 1.0
pro14Rd5 4.440892098500626e-16
p0 -3.3306690738754696e-16
p1 -2.7755575615628914e-17
p2 -8.326672684688674e-17
p3 -4.440892098500626e-16
p4 1.0
p5 1.0
p6 1.0
p7 -0.0
p8 4.440892098500626e-16
p9 0.0
p10 0.0
p11 0.9999999999999982
p12 -1.7763568394002505e-15
p13 -3.3306690738754696e-16
p14 -0.0
p15 1.0
p16 -1.6653345369377348e-16
p17 0.0
p18 -4.440892098500626e-16
p19 8.881784197001252e-16
p20 1.0
p21 0.0
p22 1.0
p23 -3.3306690738754696e-16
p24 -5.551115123125783e-17
p25 -1.6653345369377348e-16
p26 -8.881784197001252e-16
p27 -0.0
p28 -0.0
p29 1.0
p30 2.0816681711721685e-17
p31 -5.551115123125783e-17
p0Rd1 0.0
p16Rd1 -1.6653345369377348e-16
temp0Rnd0 -4.440892098500626e-16
p1Rd1 0.0
p17Rd1 -2.7755575615628914e-17
temp1Rnd0 8.881784197001252e-16
p2Rd1 1.0
p18Rd1 0.0
temp2Rnd0 1.0
p3Rd1 -5.551115123125783e-17
p19Rd1 2.0816681711721685e-17
temp3Rnd0 -5.551115123125783e-17
p4Rd1 1.0
p20Rd1 -0.0
temp4Rnd0 1.0
p5Rd1 -3.3306690738754696e-16
p21Rd1 -0.0
temp5Rnd0 -3.3306690738754696e-16
p6Rd1 -5.551115123125783e-17
p22Rd1 0.0
temp6Rnd0 -5.551115123125783e-17
p7Rd1 -3.3306690738754696e-16
p23Rd1 -5.551115123125783e-17
temp7Rnd0 -3.3306690738754696e-16
p8Rd1 0.0
p24Rd1 -8.881784197001252e-16
temp8Rnd0 -8.881784197001252e-16
p9Rd1 -0.0
p25Rd1 -0.0
temp9Rnd0 0.0
p10Rd1 -8.326672684688674e-17
p26Rd1 -8.881784197001252e-16
temp10Rnd0 -4.440892098500626e-16
p11Rd1 0.0
p27Rd1 1.0
temp11Rnd0 1.0
p12Rd1 2.0816681711721685e-17
p28Rd1 0.0
temp12Rnd0 2.0816681711721685e-17
p13Rd1 -0.0
p29Rd1 -5.551115123125783e-17
temp13Rnd0 -5.551115123125783e-17
p14Rd1 -0.0
p30Rd1 -1.6653345369377348e-16
temp14Rnd0 -1.6653345369377348e-16
p15Rd1 0.0
p31Rd1 -0.0
temp15Rnd0 0.0
temp0 -5.551115123125783e-17
p0Rd2 0.0
p16Rd2 -0.0
temp0Rnd1 -0.0
p1Rd2 2.0816681711721685e-17
p17Rd2 0.0
temp1Rnd1 2.0816681711721685e-17
p2Rd2 -0.0
p18Rd2 0.0
temp2Rnd1 0.0
p3Rd2 0.0
p19Rd2 0.0
temp3Rnd1 -0.0
p4Rd2 -0.0
p20Rd2 0.0
temp4Rnd1 -0.0
p5Rd2 -0.0
p21Rd2 -5.551115123125783e-17
temp5Rnd1 -5.551115123125783e-17
p6Rd2 0.0
p22Rd2 2.0816681711721685e-17
temp6Rnd1 -8.881784197001252e-16
p7Rd2 -0.0
p23Rd2 0.0
temp7Rnd1 -0.0
p8Rd2 -8.881784197001252e-16
p24Rd2 2.0816681711721685e-17
temp8Rnd1 -8.881784197001252e-16
p9Rd2 1.0
p25Rd2 0.0
temp9Rnd1 1.0
p10Rd2 0.0
p26Rd2 0.0
temp10Rnd1 0.0
p11Rd2 -5.551115123125783e-17
p27Rd2 -0.0
temp11Rnd1 -5.551115123125783e-17
p12Rd2 -1.6653345369377348e-16
p28Rd2 -0.0
temp12Rnd1 -1.6653345369377348e-16
p13Rd2 -2.220446049250313e-16
p29Rd2 -2.220446049250313e-16
temp13Rnd1 -2.220446049250313e-16
p14Rd2 -1.6653345369377348e-16
p30Rd2 -0.0
temp14Rnd1 -1.6653345369377348e-16
p15Rd2 -0.0
p31Rd2 -8.881784197001252e-16
temp15Rnd1 -8.881784197001252e-16
temp1 0.0
p0Rd3 1.0
p16Rd3 1.0
temp0Rnd2 1.0
p1Rd3 0.0
p17Rd3 0.0
temp1Rnd2 0.0
p2Rd3 -0.0
p18Rd3 0.0
temp2Rnd2 -0.0
p3Rd3 0.0
p19Rd3 0.0
temp3Rnd2 0.0
p4Rd3 -2.220446049250313e-16
p20Rd3 0.0
temp4Rnd2 0.0
p5Rd3 0.0
p21Rd3 0.0
temp5Rnd2 0.0
p6Rd3 2.0816681711721685e-17
p22Rd3 -0.0
temp6Rnd2 2.0816681711721685e-17
p7Rd3 -0.0
p23Rd3 0.0
temp7Rnd2 0.0
p8Rd3 -0.0
p24Rd3 0.0
temp8Rnd2 0.0
p9Rd3 0.0
p25Rd3 0.0
temp9Rnd2 0.0
p10Rd3 0.0
p26Rd3 0.0
temp10Rnd2 0.0
p11Rd3 0.0
p27Rd3 -2.220446049250313e-16
temp11Rnd2 -2.220446049250313e-16
p12Rd3 -0.0
p28Rd3 -0.0
temp12Rnd2 0.0
p13Rd3 0.0
p29Rd3 0.0
temp13Rnd2 0.0
p14Rd3 0.0
p30Rd3 -0.0
temp14Rnd2 -0.0
p15Rd3 0.0
p31Rd3 -0.0
temp15Rnd2 -0.0
temp2 -8.881784197001252e-16
p0Rd4 1.0000000000000004
p16Rd4 1.0000000000000004
temp0Rnd3 1.0000000000000004
p1Rd4 -4.440892098500626e-16
p17Rd4 8.881784197001252e-16
temp1Rnd3 8.881784197001252e-16
p2Rd4 -4.440892098500626e-16
p18Rd4 -2.220446049250313e-16
temp2Rnd3 -4.440892098500626e-16
p3Rd4 0.0
p19Rd4 0.0
temp3Rnd3 0.0
p4Rd4 3.885780586188048e-16
p20Rd4 3.885780586188048e-16
temp4Rnd3 3.885780586188048e-16
p5Rd4 -0.0
p21Rd4 0.0
temp5Rnd3 -0.0
p6Rd4 -0.0
p22Rd4 0.0
temp6Rnd3 0.0
p7Rd4 1.0
p23Rd4 1.0
temp7Rnd3 1.0
p8Rd4 -0.0
p24Rd4 0.0
temp8Rnd3 0.0
p9Rd4 -0.0
p25Rd4 -2.220446049250313e-16
temp9Rnd3 -2.220446049250313e-16
p10Rd4 0.0
p26Rd4 0.0
temp10Rnd3 0.0
p11Rd4 -2.220446049250313e-16
p27Rd4 4.440892098500626e-16
temp11Rnd3 4.440892098500626e-16
p12Rd4 0.0
p28Rd4 0.0
temp12Rnd3 0.0
p13Rd4 0.0
p29Rd4 0.0
temp13Rnd3 0.0
p14Rd4 -0.0
p30Rd4 1.0
temp14Rnd3 1.0
p15Rd4 0.0
p31Rd4 -0.0
temp15Rnd3 0.0
temp3 0.0
p0Rd5 1.0
p16Rd5 1.0000000000000036
temp0Rnd4 1.0
p1Rd5 -0.0
p17Rd5 0.0
temp1Rnd4 -1.6653345369377348e-16
p2Rd5 0.0
p18Rd5 -2.220446049250313e-16
temp2Rnd4 0.0
p3Rd5 0.0
p19Rd5 0.0
temp3Rnd4 0.0
p4Rd5 -0.0
p20Rd5 -0.0
temp4Rnd4 -0.0
p5Rd5 3.3306690738754696e-16
p21Rd5 0.9999999999999996
temp5Rnd4 1.0
p6Rd5 4.440892098500626e-16
p22Rd5 4.440892098500626e-16
temp6Rnd4 4.440892098500626e-16
p7Rd5 -0.0
p23Rd5 -2.220446049250313e-16
temp7Rnd4 -2.220446049250313e-16
p8Rd5 4.440892098500626e-16
p24Rd5 4.440892098500626e-16
temp8Rnd4 4.440892098500626e-16
p9Rd5 0.0
p25Rd5 0.0
temp9Rnd4 -0.0
p10Rd5 0.0
p26Rd5 0.0
temp10Rnd4 -5.551115123125783e-17
p11Rd5 2.220446049250313e-16
p27Rd5 1.1102230246251565e-16
temp11Rnd4 2.220446049250313e-16
p12Rd5 0.0
p28Rd5 1.0
temp12Rnd4 1.0
p13Rd5 0.0
p29Rd5 0.0
temp13Rnd4 0.0
p14Rd5 -0.0
p30Rd5 1.0000000000000004
temp14Rnd4 1.0000000000000004
p15Rd5 0.0
p31Rd5 8.881784197001252e-16
temp15Rnd4 8.881784197001252e-16
temp4 0.0
p0Rd6 1.0
p16Rd6 0.9999999999999964
temp0Rnd5 1.0
p1Rd6 0.0
p17Rd6 -0.0
temp1Rnd5 -9.71445146547012e-17
p2Rd6 -2.220446049250313e-16
p18Rd6 -2.220446049250313e-16
temp2Rnd5 -2.220446049250313e-16
p3Rd6 0.0
p19Rd6 1.0000000000000004
temp3Rnd5 1.0
p4Rd6 0.0
p20Rd6 8.881784197001252e-16
temp4Rnd5 8.881784197001252e-16
p5Rd6 1.0000000000000002
p21Rd6 1.0
temp5Rnd5 1.0
p6Rd6 4.440892098500626e-16
p22Rd6 -0.0
temp6Rnd5 4.440892098500626e-16
p7Rd6 0.9999999999999982
p23Rd6 1.0
temp7Rnd5 0.9999999999999982
p8Rd6 4.440892098500626e-16
p24Rd6 8.881784197001252e-16
temp8Rnd5 8.881784197001252e-16
p9Rd6 0.0
p25Rd6 0.0
temp9Rnd5 0.0
p10Rd6 0.0
p26Rd6 1.0
temp10Rnd5 1.0
p11Rd6 2.220446049250313e-16
p27Rd6 -4.440892098500626e-16
temp11Rnd5 0.0
p12Rd6 1.0
p28Rd6 -4.440892098500626e-16
temp12Rnd5 1.0
p13Rd6 4.440892098500626e-16
p29Rd6 8.881784197001252e-16
temp13Rnd5 8.881784197001252e-16
p14Rd6 1.0000000000000018
p30Rd6 1.7763568394002505e-15
temp14Rnd5 1.0000000000000036
p15Rd6 0.0
p31Rd6 -0.0
temp15Rnd5 0.0
temp5 8.881784197001252e-16
